db/data/31714173722197823825823741342601314414.z3.out
sat
-------------------
7.462924395
